<?xml version="1.0" encoding="UTF-8"?><osil xmlns="os.optimizationservices.org" xmlns:xsi="http://www.w3.org/2001/XMLSchema-instance" xsi:schemaLocation="os.optimizationservices.org http://www.optimizationservices.org/schemas/2.0/OSiL.xsd"><instanceHeader><name>cvxnonsep_pcon20</name></instanceHeader><instanceData><variables numberOfVariables="20"><var name="i1" type="I" ub="5"/><var name="i2" type="I" ub="5"/><var name="i3" type="I" ub="5"/><var name="i4" type="I" ub="5"/><var name="i5" type="I" ub="5"/><var name="i6" type="I" ub="5"/><var name="i7" type="I" ub="5"/><var name="i8" type="I" ub="5"/><var name="i9" type="I" ub="5"/><var name="i10" type="I" ub="5"/><var name="x11" ub="5"/><var name="x12" ub="5"/><var name="x13" ub="5"/><var name="x14" ub="5"/><var name="x15" ub="5"/><var name="x16" ub="5"/><var name="x17" ub="5"/><var name="x18" ub="5"/><var name="x19" ub="5"/><var name="x20" ub="5"/></variables><objectives><obj maxOrMin="min" name="defObj_objvar" numberOfObjCoef="20"><coef idx="0">-.53</coef><coef idx="1">-.65</coef><coef idx="2">-.49</coef><coef idx="3">-.82</coef><coef idx="4">-.88</coef><coef idx="5">-.97</coef><coef idx="6">-.53</coef><coef idx="7">-.33</coef><coef idx="8">-.11</coef><coef idx="9">-.61</coef><coef idx="10">-.78</coef><coef idx="11">-9e-2</coef><coef idx="12">-.27</coef><coef idx="13">-.15</coef><coef idx="14">-.28</coef><coef idx="15">-.44</coef><coef idx="16">-.53</coef><coef idx="17">-.46</coef><coef idx="18">-.88</coef><coef idx="19">-.15</coef></obj></objectives><constraints numberOfConstraints="1"><con name="e2" ub="5.76e4"/></constraints><nonlinearExpressions numberOfNonlinearExpressions="1"><nl idx="0"><square><sum><power><number value="2"/><sum><variable idx="0"/><variable idx="1"/></sum></power><power><number value="2"/><sum><variable idx="1"/><variable idx="2"/></sum></power><power><number value="2"/><sum><variable idx="2"/><variable idx="3"/></sum></power><power><number value="2"/><sum><variable idx="3"/><variable idx="4"/></sum></power><power><number value="2"/><sum><variable idx="4"/><variable idx="5"/></sum></power><power><number value="2"/><sum><variable idx="5"/><variable idx="6"/></sum></power><power><number value="2"/><sum><variable idx="6"/><variable idx="7"/></sum></power><power><number value="2"/><sum><variable idx="7"/><variable idx="8"/></sum></power><power><number value="2"/><sum><variable idx="8"/><variable idx="9"/></sum></power><power><number value="2"/><sum><variable idx="9"/><variable idx="10"/></sum></power><power><number value="2"/><sum><variable idx="10"/><variable idx="11"/></sum></power><power><number value="2"/><sum><variable idx="11"/><variable idx="12"/></sum></power><power><number value="2"/><sum><variable idx="12"/><variable idx="13"/></sum></power><power><number value="2"/><sum><variable idx="13"/><variable idx="14"/></sum></power><power><number value="2"/><sum><variable idx="14"/><variable idx="15"/></sum></power><power><number value="2"/><sum><variable idx="15"/><variable idx="16"/></sum></power><power><number value="2"/><sum><variable idx="16"/><variable idx="17"/></sum></power><power><number value="2"/><sum><variable idx="17"/><variable idx="18"/></sum></power><power><number value="2"/><sum><variable idx="18"/><variable idx="19"/></sum></power></sum></square></nl></nonlinearExpressions></instanceData></osil>